[on. 05. april 13:40:27 +0200 2023]  ./input/alternate_g_np_100/100-2-2.gcc
Set parameter Username
Academic license - for non-commercial use only - expires 2024-03-28
Set parameter TimeLimit to value 1800
Set parameter PreCrush to value 1
Set parameter LazyConstraints to value 1
Gurobi Optimizer version 10.0.1 build v10.0.1rc0 (linux64)

CPU model: AMD Ryzen 9 5950X 16-Core Processor, instruction set [SSE2|AVX|AVX2]
Thread count: 16 physical cores, 32 logical processors, using up to 32 threads

Optimize a model with 101 rows, 200 columns and 400 nonzeros
Model fingerprint: 0xa50903ef
Variable types: 0 continuous, 200 integer (200 binary)
Coefficient statistics:
  Matrix range     [1e+00, 1e+00]
  Objective range  [1e+00, 1e+02]
  Bounds range     [1e+00, 1e+00]
  RHS range        [1e+00, 1e+00]
Presolve time: 0.00s
Presolved: 101 rows, 200 columns, 400 nonzeros
Variable types: 0 continuous, 200 integer (200 binary)

Root relaxation: objective 4.972000e+03, 1 iterations, 0.00 seconds (0.00 work units)

    Nodes    |    Current Node    |     Objective Bounds      |     Work
 Expl Unexpl |  Obj  Depth IntInf | Incumbent    BestBd   Gap | It/Node Time

     0     0 4972.00000    0    -          - 4972.00000      -     -    0s
     0     0 4972.00000    0    -          - 4972.00000      -     -    0s
     0     0 4972.00000    0    8          - 4972.00000      -     -    0s
     0     0 4972.00000    0    -          - 4972.00000      -     -    0s
     0     0 4972.00000    0    -          - 4972.00000      -     -    0s
     0     0 4972.00000    0    -          - 4972.00000      -     -    0s
     0     0 4972.00000    0    -          - 4972.00000      -     -    0s
     0     0 4972.00000    0    -          - 4972.00000      -     -    0s
     0     0 4972.00000    0    -          - 4972.00000      -     -    0s
     0     0 4972.00000    0    -          - 4972.00000      -     -    0s
     0     0 4972.00000    0    -          - 4972.00000      -     -    0s
     0     0 4972.00000    0    -          - 4972.00000      -     -    0s
     0     0 4972.00000    0    -          - 4972.00000      -     -    0s
     0     0 4972.00000    0    -          - 4972.00000      -     -    0s
     0     0 4972.00000    0    -          - 4972.00000      -     -    0s
     0     0 4972.00000    0    -          - 4972.00000      -     -    0s
     0     0 4972.00000    0    -          - 4972.00000      -     -    0s
     0     0 4972.00000    0    -          - 4972.00000      -     -    0s
     0     0 4972.00000    0    -          - 4972.00000      -     -    0s
     0     0 4972.00000    0    -          - 4972.00000      -     -    0s
     0     0 4972.00000    0    -          - 4972.00000      -     -    0s
     0     0 4972.00000    0    -          - 4972.00000      -     -    0s
     0     0 4972.00000    0    -          - 4972.00000      -     -    0s
     0     0 4972.00000    0    -          - 4972.00000      -     -    0s
     0     0 4972.00000    0    -          - 4972.00000      -     -    0s
     0     0 4972.00000    0    -          - 4972.00000      -     -    0s
     0     0 4972.00000    0    -          - 4972.00000      -     -    0s
     0     0 4972.00000    0    -          - 4972.00000      -     -    0s
     0     0 4972.00000    0    -          - 4972.00000      -     -    0s
     0     0 4972.00000    0    -          - 4972.00000      -     -    0s
     0     0 4972.00000    0    -          - 4972.00000      -     -    0s
     0     0 4972.00000    0    -          - 4972.00000      -     -    0s
     0     0 4972.00000    0    -          - 4972.00000      -     -    0s
     0     0 4972.00000    0    -          - 4972.00000      -     -    0s
     0     0 4972.00000    0    -          - 4972.00000      -     -    0s
     0     0 4972.00000    0    -          - 4972.00000      -     -    0s
     0     0 4958.33333    0   86          - 4958.33333      -     -    0s
     0     0 4951.50000    0   64          - 4951.50000      -     -    0s
     0     0 4951.50000    0   20          - 4951.50000      -     -    0s
     0     2 4951.50000    0   28          - 4951.50000      -     -    0s
* 8150  4145              19    4271.0000000 4907.00000  14.9%   9.1    1s
* 8193  3942              20    4346.0000000 4905.26815  12.9%   9.5    1s
H 8277  3789                    4869.0000010 4905.26815  0.74%  10.5    1s

Cutting planes:
  User: 693
  Gomory: 14
  Inf proof: 5
  Zero half: 3
  RLT: 2
  Lazy constraints: 102

Explored 8394 nodes (96276 simplex iterations) in 1.71 seconds (1.58 work units)
Thread count was 32 (of 32 available processors)

Solution count 3: 4869 4346 4271 

Optimal solution found (tolerance 1.00e-04)
Best objective 4.869000001025e+03, best bound 4.869000001025e+03, gap 0.0000%

User-callback calls 17595, time in user-callback 0.70 sec
Minimal separator inequalities added: 8808
Indegree inequalities added: 16413
WRONG SOLUTION
[on. 05. april 13:40:28 +0200 2023]  done

